data;

param num_top:=5;

#nodes and edges of the physical network
param n := 7;

set E := (1,2) (1,7) (2,3) (2,6) (2,7) (3,4) (3,6) (4,5) (4,6) (5,6) (6,7) ;

#nodes and edges of the virtual networks
set Nl[1] := 6 4 1 2 3 ;
set Nl[2] := 2 6 7 4 3 ;
set Nl[3] := 6 4 7 2 1 ;
set Nl[4] := 2 7 6 4 5 ;
set Nl[5] := 4 6 3 7 1 ;

set El[1] := (4,6) (1,4) (1,2) (2,3) (3,6) (1,6) (1,3) (3,4) (2,4) (2,6) ;
set El[2] := (2,6) (6,7) (4,7) (3,4) (2,3) (3,7) (2,7) (2,4) (4,6) (3,6) ;
set El[3] := (4,6) (4,7) (2,7) (1,2) (1,6) (1,4) (2,4) (6,7) (2,6) (1,7) ;
set El[4] := (2,7) (6,7) (4,6) (4,5) (2,5) (2,4) (5,7) (2,6) (4,7) (5,6) ;
set El[5] := (4,6) (3,6) (3,7) (1,7) (1,4) (4,7) (3,4) (1,3) (1,6) (6,7) ;
